p edge 250 3134
e 1 21
e 1 28
e 1 34
e 1 35
e 1 53
e 1 54
e 1 56
e 1 102
e 1 111
e 1 126
e 1 144
e 1 146
e 1 148
e 1 158
e 1 169
e 1 176
e 1 184
e 1 194
e 1 196
e 1 208
e 1 213
e 1 219
e 1 221
e 1 227
e 1 237
e 1 240
e 2 47
e 2 69
e 2 80
e 2 107
e 2 129
e 2 154
e 2 156
e 2 159
e 2 170
e 2 184
e 2 188
e 2 190
e 2 199
e 2 214
e 2 216
e 2 228
e 2 242
e 2 244
e 2 246
e 3 9
e 3 17
e 3 26
e 3 36
e 3 41
e 3 44
e 3 45
e 3 48
e 3 49
e 3 66
e 3 70
e 3 79
e 3 82
e 3 102
e 3 104
e 3 105
e 3 116
e 3 134
e 3 150
e 3 152
e 3 156
e 3 161
e 3 162
e 3 163
e 3 168
e 3 197
e 3 212
e 3 223
e 3 232
e 3 235
e 3 242
e 4 9
e 4 34
e 4 36
e 4 39
e 4 72
e 4 75
e 4 78
e 4 85
e 4 113
e 4 122
e 4 125
e 4 136
e 4 148
e 4 149
e 4 199
e 4 214
e 4 227
e 4 241
e 5 24
e 5 26
e 5 35
e 5 37
e 5 40
e 5 52
e 5 80
e 5 84
e 5 99
e 5 104
e 5 113
e 5 120
e 5 123
e 5 126
e 5 128
e 5 147
e 5 158
e 5 174
e 5 179
e 5 183
e 5 196
e 5 234
e 5 246
e 5 249
e 6 7
e 6 9
e 6 12
e 6 14
e 6 16
e 6 49
e 6 55
e 6 57
e 6 60
e 6 83
e 6 92
e 6 96
e 6 97
e 6 107
e 6 113
e 6 114
e 6 127
e 6 147
e 6 164
e 6 173
e 6 174
e 6 176
e 6 183
e 6 192
e 6 193
e 6 203
e 6 215
e 6 217
e 6 242
e 7 21
e 7 27
e 7 41
e 7 43
e 7 72
e 7 80
e 7 108
e 7 109
e 7 135
e 7 137
e 7 144
e 7 145
e 7 186
e 7 206
e 7 229
e 7 241
e 7 243
e 7 246
e 8 9
e 8 48
e 8 54
e 8 60
e 8 68
e 8 85
e 8 94
e 8 96
e 8 98
e 8 106
e 8 127
e 8 128
e 8 137
e 8 140
e 8 141
e 8 143
e 8 164
e 8 165
e 8 171
e 8 175
e 8 181
e 8 208
e 8 210
e 8 217
e 8 218
e 8 230
e 9 18
e 9 33
e 9 54
e 9 58
e 9 66
e 9 70
e 9 74
e 9 79
e 9 84
e 9 88
e 9 92
e 9 107
e 9 128
e 9 136
e 9 140
e 9 150
e 9 151
e 9 157
e 9 168
e 9 173
e 9 183
e 9 185
e 9 190
e 9 195
e 9 200
e 9 205
e 9 210
e 9 212
e 9 224
e 9 225
e 9 227
e 9 230
e 9 235
e 9 239
e 9 247
e 10 16
e 10 26
e 10 47
e 10 49
e 10 50
e 10 61
e 10 114
e 10 141
e 10 144
e 10 168
e 10 174
e 10 180
e 10 181
e 10 185
e 10 186
e 10 193
e 10 196
e 10 199
e 10 219
e 10 222
e 10 249
e 11 14
e 11 16
e 11 24
e 11 26
e 11 28
e 11 52
e 11 70
e 11 94
e 11 96
e 11 100
e 11 105
e 11 112
e 11 127
e 11 129
e 11 136
e 11 159
e 11 173
e 11 179
e 11 215
e 12 16
e 12 18
e 12 22
e 12 34
e 12 35
e 12 43
e 12 44
e 12 45
e 12 62
e 12 65
e 12 96
e 12 121
e 12 124
e 12 145
e 12 148
e 12 163
e 12 167
e 12 168
e 12 174
e 12 180
e 12 208
e 12 229
e 12 236
e 12 237
e 12 239
e 13 21
e 13 27
e 13 30
e 13 38
e 13 43
e 13 51
e 13 66
e 13 68
e 13 73
e 13 77
e 13 86
e 13 89
e 13 102
e 13 106
e 13 107
e 13 116
e 13 122
e 13 124
e 13 140
e 13 141
e 13 151
e 13 157
e 13 168
e 13 181
e 13 187
e 13 196
e 13 213
e 13 234
e 13 242
e 13 249
e 14 22
e 14 31
e 14 52
e 14 58
e 14 71
e 14 77
e 14 80
e 14 84
e 14 86
e 14 94
e 14 98
e 14 108
e 14 113
e 14 120
e 14 139
e 14 141
e 14 142
e 14 145
e 14 148
e 14 149
e 14 167
e 14 172
e 14 193
e 14 209
e 14 214
e 14 221
e 14 243
e 15 29
e 15 30
e 15 43
e 15 46
e 15 50
e 15 69
e 15 88
e 15 92
e 15 94
e 15 105
e 15 110
e 15 115
e 15 120
e 15 122
e 15 124
e 15 142
e 15 160
e 15 174
e 15 184
e 15 189
e 15 198
e 15 210
e 15 215
e 15 222
e 15 236
e 16 33
e 16 36
e 16 38
e 16 59
e 16 86
e 16 94
e 16 97
e 16 99
e 16 104
e 16 108
e 16 111
e 16 126
e 16 139
e 16 142
e 16 143
e 16 146
e 16 159
e 16 163
e 16 170
e 16 171
e 16 177
e 16 178
e 16 183
e 16 189
e 16 194
e 16 248
e 17 19
e 17 24
e 17 26
e 17 39
e 17 43
e 17 52
e 17 57
e 17 64
e 17 71
e 17 74
e 17 87
e 17 89
e 17 92
e 17 96
e 17 98
e 17 140
e 17 142
e 17 166
e 17 168
e 17 180
e 17 186
e 17 194
e 17 212
e 17 214
e 17 246
e 18 24
e 18 29
e 18 59
e 18 66
e 18 71
e 18 74
e 18 82
e 18 85
e 18 100
e 18 102
e 18 107
e 18 113
e 18 116
e 18 125
e 18 136
e 18 153
e 18 170
e 18 193
e 18 202
e 18 210
e 18 212
e 18 221
e 18 222
e 18 224
e 18 228
e 18 238
e 18 239
e 18 242
e 18 243
e 18 250
e 19 29
e 19 33
e 19 70
e 19 73
e 19 94
e 19 99
e 19 104
e 19 113
e 19 118
e 19 129
e 19 133
e 19 141
e 19 143
e 19 149
e 19 200
e 19 203
e 19 223
e 19 228
e 19 231
e 19 239
e 19 240
e 19 244
e 20 28
e 20 36
e 20 37
e 20 39
e 20 49
e 20 83
e 20 89
e 20 97
e 20 108
e 20 111
e 20 117
e 20 120
e 20 124
e 20 125
e 20 144
e 20 145
e 20 148
e 20 153
e 20 172
e 20 176
e 20 177
e 20 184
e 20 193
e 20 196
e 20 200
e 20 203
e 20 207
e 20 236
e 20 250
e 21 30
e 21 37
e 21 53
e 21 54
e 21 68
e 21 73
e 21 77
e 21 79
e 21 99
e 21 110
e 21 149
e 21 150
e 21 151
e 21 173
e 21 177
e 21 201
e 21 202
e 21 203
e 21 229
e 21 235
e 21 241
e 22 31
e 22 38
e 22 51
e 22 59
e 22 93
e 22 120
e 22 134
e 22 156
e 22 161
e 22 166
e 22 167
e 22 179
e 22 186
e 22 210
e 22 218
e 22 222
e 22 223
e 22 233
e 22 234
e 22 244
e 23 32
e 23 43
e 23 48
e 23 69
e 23 78
e 23 81
e 23 102
e 23 109
e 23 124
e 23 131
e 23 133
e 23 137
e 23 147
e 23 154
e 23 156
e 23 163
e 23 175
e 23 192
e 23 197
e 23 210
e 23 213
e 23 220
e 23 233
e 23 237
e 23 240
e 24 32
e 24 41
e 24 55
e 24 74
e 24 75
e 24 80
e 24 87
e 24 89
e 24 94
e 24 96
e 24 109
e 24 124
e 24 125
e 24 141
e 24 162
e 24 171
e 24 172
e 24 189
e 24 195
e 24 207
e 24 212
e 24 217
e 24 227
e 24 232
e 24 239
e 25 26
e 25 27
e 25 28
e 25 39
e 25 58
e 25 62
e 25 69
e 25 88
e 25 103
e 25 117
e 25 119
e 25 120
e 25 136
e 25 137
e 25 165
e 25 168
e 25 194
e 25 206
e 25 216
e 25 218
e 25 221
e 25 228
e 25 247
e 25 249
e 25 250
e 26 35
e 26 39
e 26 42
e 26 46
e 26 52
e 26 56
e 26 81
e 26 94
e 26 99
e 26 103
e 26 104
e 26 139
e 26 146
e 26 158
e 26 167
e 26 207
e 26 221
e 26 226
e 26 244
e 26 248
e 27 41
e 27 42
e 27 57
e 27 60
e 27 66
e 27 76
e 27 81
e 27 92
e 27 95
e 27 103
e 27 119
e 27 124
e 27 127
e 27 129
e 27 133
e 27 145
e 27 152
e 27 161
e 27 166
e 27 168
e 27 171
e 27 190
e 27 230
e 27 232
e 27 242
e 27 243
e 28 40
e 28 44
e 28 57
e 28 68
e 28 73
e 28 83
e 28 91
e 28 102
e 28 104
e 28 105
e 28 107
e 28 129
e 28 131
e 28 137
e 28 138
e 28 162
e 28 169
e 28 177
e 28 180
e 28 185
e 28 215
e 28 218
e 28 223
e 28 225
e 28 228
e 28 236
e 28 243
e 29 43
e 29 45
e 29 60
e 29 67
e 29 73
e 29 75
e 29 78
e 29 82
e 29 123
e 29 227
e 29 228
e 29 250
e 30 43
e 30 46
e 30 52
e 30 62
e 30 92
e 30 100
e 30 184
e 30 187
e 30 206
e 30 218
e 30 226
e 30 239
e 30 247
e 31 32
e 31 37
e 31 38
e 31 44
e 31 45
e 31 46
e 31 48
e 31 59
e 31 65
e 31 107
e 31 118
e 31 122
e 31 126
e 31 156
e 31 157
e 31 161
e 31 163
e 31 173
e 31 177
e 31 180
e 31 184
e 31 186
e 31 187
e 31 197
e 31 239
e 32 41
e 32 47
e 32 53
e 32 58
e 32 60
e 32 65
e 32 68
e 32 69
e 32 83
e 32 97
e 32 99
e 32 106
e 32 112
e 32 113
e 32 120
e 32 123
e 32 131
e 32 161
e 32 163
e 32 191
e 32 200
e 32 211
e 32 214
e 32 241
e 32 242
e 33 34
e 33 40
e 33 45
e 33 47
e 33 62
e 33 76
e 33 89
e 33 129
e 33 143
e 33 149
e 33 154
e 33 157
e 33 206
e 33 213
e 33 214
e 33 233
e 33 240
e 33 242
e 34 48
e 34 49
e 34 50
e 34 76
e 34 87
e 34 89
e 34 93
e 34 94
e 34 98
e 34 103
e 34 115
e 34 126
e 34 136
e 34 149
e 34 158
e 34 167
e 34 183
e 34 185
e 34 192
e 34 199
e 34 221
e 34 222
e 34 227
e 34 232
e 34 233
e 34 234
e 34 244
e 35 48
e 35 60
e 35 77
e 35 90
e 35 91
e 35 93
e 35 99
e 35 102
e 35 104
e 35 109
e 35 126
e 35 140
e 35 146
e 35 167
e 35 175
e 35 199
e 35 212
e 35 220
e 35 225
e 36 67
e 36 72
e 36 75
e 36 78
e 36 86
e 36 97
e 36 109
e 36 148
e 36 166
e 36 170
e 36 186
e 36 189
e 36 196
e 36 209
e 36 214
e 36 229
e 36 233
e 36 238
e 36 239
e 36 240
e 37 40
e 37 45
e 37 57
e 37 58
e 37 87
e 37 91
e 37 102
e 37 103
e 37 104
e 37 106
e 37 107
e 37 118
e 37 137
e 37 140
e 37 160
e 37 179
e 37 180
e 37 195
e 37 198
e 37 209
e 37 221
e 37 247
e 38 63
e 38 119
e 38 130
e 38 161
e 38 163
e 38 172
e 38 178
e 38 180
e 38 200
e 38 205
e 38 213
e 38 224
e 38 225
e 38 234
e 38 250
e 39 44
e 39 52
e 39 53
e 39 66
e 39 108
e 39 110
e 39 117
e 39 121
e 39 144
e 39 155
e 39 163
e 39 167
e 39 170
e 39 175
e 39 183
e 39 184
e 39 185
e 39 186
e 39 204
e 40 42
e 40 49
e 40 69
e 40 87
e 40 92
e 40 104
e 40 107
e 40 116
e 40 123
e 40 128
e 40 134
e 40 145
e 40 148
e 40 186
e 40 195
e 40 214
e 40 225
e 40 235
e 40 238
e 40 247
e 41 42
e 41 54
e 41 79
e 41 89
e 41 110
e 41 117
e 41 120
e 41 128
e 41 153
e 41 156
e 41 160
e 41 167
e 41 207
e 41 209
e 41 219
e 41 232
e 41 243
e 41 247
e 42 44
e 42 45
e 42 66
e 42 130
e 42 135
e 42 136
e 42 148
e 42 163
e 42 167
e 42 179
e 42 182
e 42 186
e 42 201
e 42 209
e 42 216
e 42 226
e 42 229
e 42 249
e 43 46
e 43 60
e 43 69
e 43 74
e 43 85
e 43 91
e 43 93
e 43 116
e 43 118
e 43 120
e 43 123
e 43 125
e 43 127
e 43 133
e 43 159
e 43 172
e 43 181
e 43 189
e 43 193
e 43 201
e 43 203
e 43 206
e 43 214
e 43 219
e 43 222
e 43 245
e 44 61
e 44 78
e 44 104
e 44 140
e 44 143
e 44 150
e 44 154
e 44 161
e 44 164
e 44 171
e 44 174
e 44 179
e 44 184
e 44 191
e 44 192
e 44 205
e 44 221
e 44 245
e 44 247
e 45 48
e 45 62
e 45 67
e 45 69
e 45 76
e 45 78
e 45 80
e 45 86
e 45 107
e 45 125
e 45 130
e 45 138
e 45 153
e 45 154
e 45 163
e 45 175
e 45 177
e 45 203
e 45 219
e 45 220
e 45 223
e 45 226
e 45 250
e 46 75
e 46 89
e 46 98
e 46 102
e 46 104
e 46 108
e 46 109
e 46 117
e 46 126
e 46 133
e 46 140
e 46 143
e 46 148
e 46 149
e 46 151
e 46 156
e 46 167
e 46 171
e 46 191
e 46 200
e 46 207
e 46 211
e 46 227
e 46 245
e 46 247
e 46 248
e 47 67
e 47 86
e 47 99
e 47 100
e 47 104
e 47 131
e 47 138
e 47 141
e 47 147
e 47 151
e 47 153
e 47 164
e 47 170
e 47 172
e 47 194
e 47 198
e 47 203
e 47 209
e 47 214
e 47 229
e 48 53
e 48 64
e 48 71
e 48 72
e 48 76
e 48 82
e 48 86
e 48 89
e 48 103
e 48 111
e 48 113
e 48 121
e 48 122
e 48 130
e 48 158
e 48 171
e 48 194
e 48 196
e 48 203
e 48 210
e 48 211
e 48 222
e 48 226
e 48 234
e 48 243
e 48 246
e 49 51
e 49 59
e 49 72
e 49 76
e 49 82
e 49 87
e 49 93
e 49 99
e 49 136
e 49 161
e 49 164
e 49 172
e 49 195
e 49 196
e 49 199
e 49 225
e 49 226
e 49 229
e 49 234
e 50 51
e 50 58
e 50 84
e 50 85
e 50 97
e 50 104
e 50 121
e 50 122
e 50 129
e 50 134
e 50 168
e 50 193
e 50 212
e 50 217
e 50 229
e 50 240
e 51 65
e 51 71
e 51 74
e 51 81
e 51 89
e 51 93
e 51 97
e 51 113
e 51 115
e 51 118
e 51 127
e 51 128
e 51 149
e 51 155
e 51 166
e 51 178
e 51 195
e 51 208
e 51 234
e 51 240
e 51 243
e 51 250
e 52 63
e 52 65
e 52 66
e 52 108
e 52 111
e 52 113
e 52 118
e 52 120
e 52 131
e 52 135
e 52 155
e 52 157
e 52 162
e 52 163
e 52 190
e 52 204
e 52 208
e 52 216
e 52 217
e 52 229
e 52 236
e 52 250
e 53 57
e 53 59
e 53 69
e 53 73
e 53 118
e 53 154
e 53 165
e 53 172
e 53 176
e 53 177
e 53 182
e 53 193
e 53 197
e 53 198
e 53 211
e 53 212
e 53 221
e 53 222
e 53 235
e 53 240
e 53 247
e 54 57
e 54 63
e 54 64
e 54 77
e 54 83
e 54 103
e 54 112
e 54 123
e 54 124
e 54 136
e 54 151
e 54 153
e 54 154
e 54 158
e 54 170
e 54 172
e 54 192
e 54 195
e 54 197
e 54 205
e 54 218
e 54 222
e 54 226
e 54 231
e 54 232
e 54 235
e 55 62
e 55 74
e 55 83
e 55 87
e 55 105
e 55 113
e 55 120
e 55 145
e 55 146
e 55 173
e 55 174
e 55 177
e 55 178
e 55 179
e 55 185
e 55 199
e 55 201
e 55 202
e 55 233
e 55 236
e 55 240
e 56 61
e 56 64
e 56 71
e 56 85
e 56 100
e 56 115
e 56 117
e 56 123
e 56 128
e 56 131
e 56 132
e 56 141
e 56 146
e 56 149
e 56 167
e 56 185
e 56 207
e 56 212
e 56 232
e 56 237
e 56 238
e 56 246
e 57 69
e 57 83
e 57 96
e 57 115
e 57 153
e 57 155
e 57 159
e 57 160
e 57 163
e 57 170
e 57 172
e 57 182
e 57 184
e 57 215
e 57 221
e 57 240
e 57 242
e 57 248
e 58 67
e 58 71
e 58 81
e 58 110
e 58 113
e 58 117
e 58 123
e 58 129
e 58 130
e 58 135
e 58 149
e 58 150
e 58 155
e 58 162
e 58 163
e 58 179
e 58 209
e 58 220
e 58 235
e 58 241
e 58 246
e 58 250
e 59 66
e 59 77
e 59 82
e 59 85
e 59 99
e 59 105
e 59 106
e 59 115
e 59 119
e 59 123
e 59 125
e 59 128
e 59 136
e 59 146
e 59 152
e 59 154
e 59 165
e 59 181
e 59 182
e 59 184
e 59 190
e 59 197
e 59 202
e 59 213
e 59 243
e 59 248
e 60 77
e 60 79
e 60 87
e 60 96
e 60 106
e 60 110
e 60 116
e 60 119
e 60 129
e 60 131
e 60 142
e 60 154
e 60 164
e 60 171
e 60 182
e 60 198
e 60 220
e 60 233
e 61 62
e 61 65
e 61 71
e 61 81
e 61 85
e 61 90
e 61 94
e 61 101
e 61 105
e 61 120
e 61 140
e 61 176
e 61 180
e 61 181
e 61 218
e 61 220
e 61 226
e 61 244
e 61 246
e 62 64
e 62 78
e 62 90
e 62 107
e 62 110
e 62 118
e 62 125
e 62 127
e 62 131
e 62 146
e 62 157
e 62 169
e 62 185
e 62 187
e 62 194
e 62 214
e 62 230
e 63 83
e 63 87
e 63 91
e 63 99
e 63 100
e 63 101
e 63 123
e 63 158
e 63 212
e 63 214
e 63 220
e 63 233
e 63 237
e 63 244
e 64 66
e 64 86
e 64 91
e 64 92
e 64 129
e 64 130
e 64 131
e 64 148
e 64 156
e 64 158
e 64 199
e 64 200
e 64 203
e 64 219
e 65 70
e 65 71
e 65 76
e 65 84
e 65 94
e 65 95
e 65 103
e 65 150
e 65 164
e 65 171
e 65 176
e 65 195
e 65 203
e 65 220
e 66 76
e 66 78
e 66 94
e 66 100
e 66 104
e 66 105
e 66 110
e 66 115
e 66 137
e 66 152
e 66 153
e 66 161
e 66 163
e 66 172
e 66 177
e 66 179
e 66 180
e 66 183
e 66 190
e 66 198
e 66 203
e 66 215
e 66 227
e 66 233
e 67 82
e 67 88
e 67 99
e 67 107
e 67 109
e 67 119
e 67 128
e 67 131
e 67 134
e 67 136
e 67 154
e 67 178
e 67 179
e 67 185
e 67 209
e 67 218
e 67 227
e 67 229
e 67 240
e 67 247
e 68 80
e 68 94
e 68 97
e 68 125
e 68 147
e 68 148
e 68 172
e 68 183
e 68 185
e 68 193
e 68 200
e 68 201
e 68 205
e 68 215
e 68 226
e 68 245
e 69 78
e 69 80
e 69 105
e 69 129
e 69 149
e 69 151
e 69 169
e 69 180
e 69 193
e 69 194
e 69 214
e 69 229
e 69 230
e 69 234
e 69 249
e 70 85
e 70 107
e 70 115
e 70 181
e 70 187
e 70 200
e 70 231
e 71 82
e 71 94
e 71 104
e 71 110
e 71 126
e 71 128
e 71 129
e 71 138
e 71 139
e 71 142
e 71 146
e 71 204
e 71 205
e 71 211
e 71 214
e 71 215
e 71 220
e 71 228
e 71 247
e 72 79
e 72 84
e 72 97
e 72 104
e 72 114
e 72 115
e 72 118
e 72 150
e 72 172
e 72 181
e 72 187
e 72 198
e 72 222
e 72 227
e 72 228
e 72 244
e 73 74
e 73 81
e 73 83
e 73 84
e 73 88
e 73 99
e 73 101
e 73 136
e 73 139
e 73 147
e 73 157
e 73 183
e 73 194
e 73 203
e 73 209
e 73 222
e 74 76
e 74 82
e 74 87
e 74 108
e 74 112
e 74 113
e 74 115
e 74 123
e 74 137
e 74 141
e 74 146
e 74 191
e 74 210
e 74 222
e 74 223
e 74 226
e 74 231
e 74 239
e 74 242
e 75 76
e 75 79
e 75 82
e 75 94
e 75 101
e 75 111
e 75 116
e 75 118
e 75 124
e 75 125
e 75 132
e 75 152
e 75 174
e 75 182
e 75 185
e 75 187
e 75 189
e 75 197
e 75 207
e 75 212
e 75 224
e 75 229
e 75 233
e 75 249
e 76 80
e 76 93
e 76 99
e 76 115
e 76 129
e 76 134
e 76 150
e 76 180
e 76 188
e 76 235
e 76 242
e 76 245
e 77 84
e 77 87
e 77 95
e 77 99
e 77 130
e 77 136
e 77 147
e 77 176
e 77 179
e 77 185
e 77 219
e 77 221
e 77 226
e 77 247
e 78 79
e 78 84
e 78 85
e 78 87
e 78 88
e 78 97
e 78 99
e 78 116
e 78 125
e 78 143
e 78 156
e 78 163
e 78 172
e 78 175
e 78 176
e 78 180
e 78 186
e 78 187
e 78 188
e 78 197
e 78 204
e 78 209
e 78 211
e 78 213
e 78 228
e 78 229
e 78 231
e 78 240
e 78 242
e 78 248
e 78 249
e 79 81
e 79 98
e 79 133
e 79 137
e 79 140
e 79 155
e 79 170
e 79 174
e 79 181
e 79 199
e 79 206
e 79 216
e 80 84
e 80 102
e 80 105
e 80 112
e 80 113
e 80 125
e 80 151
e 80 165
e 80 168
e 80 191
e 80 194
e 80 195
e 80 205
e 80 209
e 80 211
e 80 229
e 80 230
e 80 240
e 80 243
e 80 245
e 81 96
e 81 102
e 81 104
e 81 115
e 81 122
e 81 139
e 81 141
e 81 158
e 81 161
e 81 175
e 81 184
e 81 191
e 81 207
e 81 217
e 81 218
e 82 92
e 82 96
e 82 100
e 82 103
e 82 109
e 82 140
e 82 150
e 82 154
e 82 167
e 82 181
e 82 182
e 82 213
e 82 222
e 82 224
e 82 243
e 82 247
e 83 89
e 83 100
e 83 104
e 83 108
e 83 140
e 83 151
e 83 178
e 83 184
e 83 185
e 83 190
e 83 192
e 83 206
e 83 214
e 83 218
e 83 232
e 84 87
e 84 89
e 84 97
e 84 104
e 84 117
e 84 136
e 84 139
e 84 164
e 84 174
e 84 184
e 84 207
e 84 237
e 84 238
e 85 96
e 85 98
e 85 111
e 85 114
e 85 119
e 85 126
e 85 132
e 85 135
e 85 148
e 85 157
e 85 175
e 85 187
e 85 194
e 85 199
e 85 201
e 85 218
e 85 222
e 85 229
e 85 231
e 85 235
e 85 240
e 85 243
e 86 87
e 86 89
e 86 90
e 86 95
e 86 106
e 86 116
e 86 153
e 86 183
e 86 197
e 86 201
e 86 202
e 86 233
e 86 235
e 86 249
e 87 89
e 87 90
e 87 102
e 87 105
e 87 107
e 87 136
e 87 137
e 87 154
e 87 172
e 87 187
e 87 189
e 87 192
e 87 193
e 87 197
e 87 215
e 87 217
e 87 243
e 87 245
e 88 94
e 88 115
e 88 127
e 88 132
e 88 137
e 88 147
e 88 152
e 88 157
e 88 159
e 88 180
e 88 181
e 88 198
e 88 216
e 88 220
e 88 223
e 88 228
e 88 233
e 88 240
e 88 244
e 88 246
e 89 108
e 89 111
e 89 112
e 89 126
e 89 167
e 89 169
e 89 171
e 89 178
e 89 188
e 89 189
e 89 191
e 89 199
e 89 200
e 89 211
e 89 235
e 89 238
e 90 99
e 90 104
e 90 124
e 90 138
e 90 144
e 90 167
e 90 176
e 90 180
e 90 194
e 90 212
e 90 220
e 90 223
e 90 230
e 90 238
e 91 128
e 91 144
e 91 152
e 91 202
e 91 203
e 91 204
e 91 205
e 91 232
e 91 239
e 91 240
e 91 247
e 92 100
e 92 107
e 92 123
e 92 129
e 92 132
e 92 141
e 92 149
e 92 157
e 92 162
e 92 165
e 92 170
e 92 176
e 92 185
e 92 192
e 92 195
e 92 215
e 92 223
e 92 224
e 92 230
e 93 100
e 93 105
e 93 106
e 93 109
e 93 123
e 93 148
e 93 156
e 93 167
e 93 168
e 93 177
e 93 180
e 93 191
e 93 194
e 93 212
e 93 216
e 93 244
e 93 249
e 94 96
e 94 118
e 94 124
e 94 127
e 94 140
e 94 147
e 94 153
e 94 168
e 94 173
e 94 198
e 94 204
e 94 206
e 94 231
e 94 233
e 94 238
e 94 243
e 95 108
e 95 110
e 95 117
e 95 126
e 95 127
e 95 129
e 95 132
e 95 148
e 95 162
e 95 163
e 95 177
e 95 190
e 95 194
e 95 197
e 95 208
e 95 225
e 95 231
e 95 234
e 96 97
e 96 98
e 96 122
e 96 134
e 96 137
e 96 153
e 96 158
e 96 167
e 96 170
e 96 176
e 96 177
e 96 178
e 96 190
e 96 215
e 96 220
e 96 226
e 96 227
e 96 230
e 96 239
e 96 245
e 97 103
e 97 106
e 97 107
e 97 109
e 97 119
e 97 122
e 97 128
e 97 136
e 97 167
e 97 169
e 97 170
e 97 172
e 97 173
e 97 189
e 97 195
e 97 207
e 97 208
e 97 219
e 97 222
e 97 240
e 97 241
e 98 100
e 98 102
e 98 106
e 98 117
e 98 119
e 98 126
e 98 147
e 98 172
e 98 179
e 98 183
e 98 188
e 98 193
e 98 213
e 98 217
e 98 218
e 99 149
e 99 151
e 99 164
e 99 166
e 99 179
e 99 187
e 99 202
e 99 214
e 99 228
e 99 237
e 99 238
e 99 246
e 100 118
e 100 125
e 100 126
e 100 144
e 100 150
e 100 159
e 100 179
e 100 181
e 100 194
e 100 210
e 100 212
e 100 217
e 100 224
e 100 229
e 101 108
e 101 109
e 101 111
e 101 112
e 101 122
e 101 150
e 101 154
e 101 166
e 101 167
e 101 181
e 101 195
e 101 202
e 101 217
e 101 235
e 101 237
e 101 245
e 101 246
e 102 118
e 102 120
e 102 121
e 102 133
e 102 141
e 102 148
e 102 177
e 102 204
e 102 210
e 102 248
e 102 250
e 103 109
e 103 111
e 103 113
e 103 128
e 103 158
e 103 160
e 103 169
e 103 184
e 103 202
e 103 205
e 103 208
e 103 210
e 103 218
e 103 233
e 103 235
e 104 110
e 104 131
e 104 134
e 104 150
e 104 152
e 104 178
e 104 194
e 104 213
e 104 217
e 104 234
e 105 108
e 105 111
e 105 126
e 105 139
e 105 145
e 105 148
e 105 165
e 105 167
e 105 186
e 105 190
e 105 193
e 105 200
e 105 202
e 105 206
e 105 210
e 105 219
e 105 224
e 105 226
e 105 237
e 105 238
e 105 241
e 106 110
e 106 118
e 106 144
e 106 146
e 106 154
e 106 172
e 106 176
e 106 185
e 106 194
e 106 195
e 106 199
e 106 207
e 106 208
e 106 209
e 106 217
e 107 113
e 107 116
e 107 124
e 107 129
e 107 132
e 107 136
e 107 137
e 107 154
e 107 157
e 107 162
e 107 163
e 107 169
e 107 172
e 107 174
e 107 181
e 107 192
e 107 198
e 107 205
e 107 217
e 108 115
e 108 117
e 108 135
e 108 141
e 108 146
e 108 149
e 108 159
e 108 181
e 108 197
e 108 223
e 108 231
e 108 240
e 109 115
e 109 125
e 109 127
e 109 128
e 109 129
e 109 134
e 109 135
e 109 137
e 109 154
e 109 159
e 109 162
e 109 166
e 109 186
e 109 206
e 109 208
e 109 209
e 109 222
e 109 226
e 109 228
e 109 232
e 109 235
e 109 250
e 110 119
e 110 123
e 110 134
e 110 138
e 110 143
e 110 153
e 110 155
e 110 169
e 110 176
e 110 187
e 110 199
e 110 200
e 110 212
e 110 239
e 110 241
e 110 250
e 111 116
e 111 141
e 111 154
e 111 157
e 111 168
e 111 171
e 111 185
e 111 195
e 111 196
e 111 200
e 111 216
e 111 233
e 112 113
e 112 130
e 112 132
e 112 141
e 112 158
e 112 160
e 112 163
e 112 167
e 112 184
e 112 193
e 112 205
e 112 224
e 112 226
e 112 239
e 113 137
e 113 138
e 113 139
e 113 158
e 113 162
e 113 179
e 113 180
e 113 192
e 113 205
e 113 216
e 113 217
e 113 221
e 113 226
e 113 232
e 113 238
e 113 242
e 114 140
e 114 143
e 114 173
e 114 174
e 114 195
e 114 207
e 114 220
e 114 222
e 114 236
e 114 248
e 115 122
e 115 137
e 115 155
e 115 157
e 115 174
e 115 179
e 115 183
e 115 216
e 115 223
e 115 238
e 116 118
e 116 121
e 116 132
e 116 143
e 116 152
e 116 170
e 116 175
e 116 179
e 116 185
e 116 186
e 116 189
e 116 226
e 117 120
e 117 125
e 117 128
e 117 132
e 117 137
e 117 143
e 117 145
e 117 151
e 117 159
e 117 165
e 117 195
e 117 207
e 117 229
e 118 127
e 118 171
e 118 190
e 118 197
e 118 202
e 118 204
e 118 210
e 118 220
e 118 222
e 118 230
e 118 234
e 118 242
e 119 122
e 119 125
e 119 130
e 119 134
e 119 151
e 119 153
e 119 154
e 119 184
e 119 185
e 119 186
e 119 199
e 119 216
e 119 218
e 119 221
e 119 225
e 119 233
e 119 244
e 120 170
e 120 176
e 120 180
e 120 184
e 120 207
e 120 209
e 120 212
e 120 245
e 121 142
e 121 145
e 121 148
e 121 168
e 121 170
e 121 179
e 121 182
e 121 188
e 121 189
e 121 196
e 121 200
e 121 213
e 121 231
e 121 234
e 122 123
e 122 132
e 122 141
e 122 145
e 122 151
e 122 152
e 122 166
e 122 175
e 122 176
e 122 178
e 122 205
e 122 210
e 122 234
e 122 235
e 122 236
e 122 245
e 123 127
e 123 139
e 123 148
e 123 161
e 123 174
e 123 176
e 123 186
e 123 190
e 123 194
e 123 204
e 123 206
e 123 207
e 123 216
e 123 228
e 123 234
e 124 138
e 124 144
e 124 149
e 124 151
e 124 159
e 124 163
e 124 185
e 124 193
e 124 215
e 124 219
e 124 227
e 124 236
e 124 238
e 124 241
e 124 246
e 125 134
e 125 149
e 125 155
e 125 160
e 125 164
e 125 166
e 125 171
e 125 177
e 125 184
e 125 188
e 125 194
e 125 206
e 125 210
e 125 212
e 125 217
e 125 229
e 126 137
e 126 149
e 126 158
e 126 170
e 126 171
e 126 189
e 126 191
e 126 198
e 126 201
e 126 206
e 126 235
e 126 238
e 127 137
e 127 139
e 127 148
e 127 152
e 127 154
e 127 156
e 127 159
e 127 161
e 127 176
e 127 183
e 127 201
e 127 206
e 127 221
e 127 242
e 127 246
e 128 132
e 128 140
e 128 150
e 128 180
e 128 206
e 128 214
e 128 216
e 128 219
e 128 222
e 128 233
e 128 239
e 128 248
e 129 138
e 129 143
e 129 159
e 129 176
e 129 191
e 129 194
e 129 200
e 129 208
e 129 218
e 129 230
e 129 247
e 130 132
e 130 138
e 130 160
e 130 163
e 130 168
e 130 170
e 130 190
e 130 192
e 130 195
e 130 207
e 130 214
e 130 221
e 130 236
e 130 245
e 130 247
e 131 156
e 131 172
e 131 176
e 131 181
e 131 201
e 131 205
e 131 208
e 131 219
e 131 224
e 131 230
e 131 239
e 131 245
e 132 143
e 132 153
e 132 160
e 132 164
e 132 194
e 132 228
e 132 245
e 133 148
e 133 156
e 133 177
e 133 192
e 133 230
e 133 238
e 133 243
e 134 137
e 134 141
e 134 168
e 134 192
e 134 195
e 134 199
e 134 208
e 134 227
e 134 228
e 134 232
e 134 238
e 134 239
e 134 245
e 135 139
e 135 162
e 135 164
e 135 165
e 135 172
e 135 188
e 135 208
e 135 209
e 135 215
e 135 226
e 135 230
e 135 240
e 136 145
e 136 146
e 136 152
e 136 160
e 136 164
e 136 170
e 136 176
e 136 177
e 136 193
e 136 194
e 136 200
e 136 201
e 136 202
e 136 204
e 136 210
e 136 214
e 136 219
e 137 156
e 137 159
e 137 191
e 137 192
e 137 196
e 137 200
e 137 208
e 138 168
e 138 178
e 138 195
e 138 205
e 138 242
e 138 250
e 139 142
e 139 149
e 139 163
e 139 164
e 139 172
e 139 188
e 139 189
e 139 193
e 139 211
e 139 212
e 139 227
e 139 229
e 139 233
e 139 243
e 140 162
e 140 172
e 140 185
e 140 186
e 140 213
e 140 245
e 140 247
e 141 154
e 141 155
e 141 171
e 141 179
e 141 184
e 141 186
e 141 187
e 141 192
e 141 196
e 141 224
e 141 228
e 141 243
e 141 244
e 141 245
e 142 176
e 142 208
e 142 217
e 142 225
e 142 235
e 143 144
e 143 151
e 143 188
e 143 195
e 143 206
e 143 226
e 143 232
e 144 151
e 144 152
e 144 170
e 144 172
e 144 178
e 144 182
e 144 197
e 144 212
e 144 213
e 144 230
e 145 146
e 145 156
e 145 176
e 145 210
e 145 214
e 145 224
e 145 240
e 146 161
e 146 169
e 146 189
e 146 208
e 146 217
e 146 227
e 147 215
e 147 218
e 147 224
e 147 228
e 147 235
e 148 159
e 148 177
e 148 179
e 148 186
e 148 189
e 148 198
e 148 207
e 148 229
e 148 237
e 149 170
e 149 185
e 149 189
e 149 201
e 149 202
e 149 204
e 149 219
e 149 241
e 150 156
e 150 161
e 150 170
e 150 182
e 150 206
e 150 220
e 150 225
e 150 239
e 150 249
e 151 158
e 151 164
e 151 172
e 151 180
e 151 188
e 151 208
e 151 216
e 151 222
e 151 224
e 151 229
e 151 236
e 151 245
e 152 161
e 152 162
e 152 170
e 152 179
e 152 181
e 152 188
e 152 196
e 152 210
e 152 228
e 152 238
e 153 218
e 153 234
e 154 160
e 154 162
e 154 171
e 154 174
e 154 180
e 154 181
e 154 196
e 154 201
e 154 231
e 154 243
e 155 183
e 155 187
e 155 188
e 155 189
e 155 193
e 155 206
e 155 219
e 155 220
e 155 225
e 155 231
e 155 244
e 156 158
e 156 171
e 156 174
e 156 184
e 156 191
e 156 199
e 156 200
e 156 210
e 156 217
e 156 218
e 156 219
e 156 234
e 156 235
e 156 236
e 157 179
e 157 185
e 157 193
e 157 207
e 157 212
e 157 214
e 157 217
e 158 185
e 158 203
e 158 209
e 158 227
e 159 176
e 159 190
e 159 201
e 159 203
e 159 214
e 159 219
e 159 223
e 160 163
e 160 178
e 160 182
e 160 190
e 160 194
e 160 202
e 160 219
e 160 230
e 160 233
e 160 235
e 160 243
e 161 162
e 161 188
e 161 191
e 161 209
e 161 215
e 161 224
e 162 191
e 162 203
e 162 216
e 162 221
e 162 235
e 162 238
e 162 239
e 162 245
e 163 212
e 163 213
e 163 214
e 163 223
e 163 231
e 163 243
e 163 246
e 163 249
e 164 167
e 164 168
e 164 179
e 164 182
e 164 193
e 164 198
e 164 208
e 164 209
e 164 214
e 164 231
e 164 234
e 164 243
e 165 188
e 165 190
e 165 191
e 165 203
e 165 213
e 165 215
e 165 218
e 165 221
e 165 225
e 165 236
e 165 241
e 165 242
e 166 174
e 166 183
e 166 189
e 166 192
e 166 193
e 166 202
e 166 203
e 166 211
e 166 220
e 166 228
e 166 233
e 166 236
e 167 173
e 167 189
e 167 199
e 167 218
e 167 231
e 167 239
e 167 240
e 168 182
e 168 191
e 168 206
e 168 209
e 168 232
e 169 182
e 169 186
e 169 189
e 169 194
e 169 199
e 169 214
e 169 232
e 169 241
e 169 249
e 170 192
e 170 206
e 170 216
e 170 224
e 170 233
e 170 235
e 170 236
e 170 245
e 170 246
e 171 173
e 171 183
e 171 195
e 171 197
e 171 205
e 171 223
e 171 230
e 171 236
e 171 238
e 172 184
e 172 192
e 172 211
e 172 237
e 172 238
e 173 179
e 173 183
e 173 189
e 173 200
e 173 202
e 173 216
e 173 228
e 173 231
e 173 234
e 173 236
e 173 238
e 173 243
e 173 244
e 173 248
e 174 189
e 174 194
e 174 201
e 174 202
e 174 227
e 174 233
e 175 177
e 175 179
e 175 180
e 175 194
e 175 197
e 175 198
e 175 222
e 175 223
e 176 178
e 176 193
e 176 196
e 176 208
e 176 211
e 176 212
e 176 221
e 176 222
e 176 233
e 176 245
e 176 247
e 177 186
e 177 195
e 177 206
e 177 212
e 177 231
e 177 232
e 177 236
e 177 250
e 178 183
e 178 196
e 178 199
e 178 212
e 178 213
e 178 227
e 178 230
e 178 233
e 178 234
e 178 238
e 178 244
e 178 245
e 179 187
e 179 188
e 179 195
e 179 197
e 179 210
e 179 230
e 179 233
e 180 208
e 180 225
e 180 230
e 180 244
e 181 186
e 181 197
e 181 198
e 181 199
e 181 205
e 181 223
e 181 231
e 181 233
e 181 244
e 182 183
e 182 190
e 182 198
e 182 212
e 182 221
e 182 233
e 182 240
e 182 248
e 182 249
e 183 188
e 183 189
e 183 191
e 183 214
e 183 221
e 183 225
e 183 233
e 183 237
e 183 246
e 183 247
e 183 249
e 184 202
e 184 220
e 184 223
e 184 227
e 184 228
e 184 229
e 184 231
e 184 235
e 184 244
e 184 247
e 185 200
e 185 202
e 185 234
e 185 242
e 185 244
e 185 250
e 186 198
e 186 210
e 186 216
e 186 221
e 186 225
e 186 229
e 186 249
e 187 216
e 187 225
e 187 230
e 187 234
e 187 241
e 187 244
e 188 205
e 188 229
e 188 250
e 189 190
e 189 201
e 189 206
e 189 207
e 189 208
e 189 214
e 189 217
e 189 218
e 189 228
e 189 249
e 190 194
e 191 198
e 191 228
e 191 231
e 191 248
e 192 208
e 192 221
e 192 233
e 192 234
e 192 242
e 193 211
e 193 223
e 193 234
e 193 236
e 194 195
e 194 215
e 194 221
e 194 231
e 194 240
e 195 222
e 195 227
e 195 239
e 195 244
e 196 202
e 196 223
e 196 244
e 196 249
e 197 218
e 197 227
e 197 233
e 197 242
e 198 210
e 198 215
e 198 236
e 198 245
e 199 227
e 199 232
e 199 233
e 199 240
e 200 212
e 200 217
e 200 219
e 200 225
e 200 243
e 200 246
e 201 230
e 201 243
e 202 205
e 202 213
e 202 240
e 202 249
e 203 210
e 203 215
e 203 223
e 203 237
e 203 240
e 203 242
e 204 209
e 204 213
e 204 248
e 205 207
e 205 214
e 205 220
e 205 235
e 206 221
e 206 226
e 206 229
e 206 233
e 207 212
e 207 214
e 207 216
e 207 231
e 207 232
e 207 233
e 208 215
e 208 232
e 208 235
e 208 238
e 209 215
e 209 222
e 209 227
e 209 229
e 209 233
e 209 249
e 209 250
e 210 218
e 210 222
e 210 224
e 210 234
e 210 239
e 210 242
e 211 215
e 211 220
e 211 223
e 211 250
e 212 216
e 212 233
e 213 246
e 214 229
e 214 235
e 214 239
e 214 246
e 214 247
e 215 218
e 215 229
e 215 232
e 216 224
e 216 225
e 216 232
e 216 235
e 217 228
e 217 231
e 217 232
e 217 238
e 217 239
e 217 241
e 218 222
e 218 228
e 218 233
e 218 247
e 218 250
e 219 229
e 219 242
e 219 250
e 220 224
e 220 235
e 221 238
e 221 244
e 221 250
e 222 223
e 222 225
e 222 226
e 222 238
e 223 229
e 223 247
e 223 250
e 225 234
e 225 248
e 226 227
e 226 229
e 227 235
e 228 237
e 229 231
e 229 233
e 229 236
e 230 232
e 230 242
e 231 239
e 231 246
e 231 247
e 232 236
e 232 237
e 232 240
e 232 245
e 233 248
e 234 243
e 234 247
e 235 243
e 236 237
e 237 242
e 238 243
e 238 250
e 239 244
e 240 245
e 240 248
e 242 246
e 242 247
e 244 248
e 246 248
e 248 250
e 249 250
